c turning on binary mode checking
c parsing input formula with 259840 variables and 1039924 clauses
c finished parsing, read 23713100 bytes from proof file
c detected empty clause; start verification via backward checking
c 9168 of 1039924 clauses in core                            
c 11606 of 608371 lemmas in core using 56687 resolution steps
c 0 RAT lemmas in core; 494 redundant literals in core lemmas
s VERIFIED
c verification time: 2.920 seconds
